NAME: bip_20_5
TYPE: TSP
COMMENT: bip_20_5
DIMENSION: 20
EDGE_WEIGHT_TYPE: EUC_2D
NODE_COORD_SECTION
1 53 14
2 51 59
3 13 93
4 86 24
5 78 46
6 64 49
7 46 5
8 56 96
9 87 77
10 90 38
11 400 487
12 461 420
13 429 431
14 430 407
15 473 486
16 444 429
17 474 412
18 475 443
19 477 499
20 427 463
